3544642176734393248501,15,1,2,05,5,1,2,06,7,1,2,015,8,1,2,02,15,1,2,09,5,1,2,012,15,1,2,012,13,1,2,03,11,1,2,015,8,1,2,09,5,1,2,04,9,1,2,08,2,1,2,011,12,1,2,05,1,1,2,05,8,1,2,09,15,1,2,014,12,1,2,03,13,1,2,04,9,1,2,07,1,1,2,011,5,1,2,08,11,1,2,012,7,1,2,010,4,1,2,07,1,1,2,03,4,1,2,010,8,1,2,014,1,1,2,06,4,1,2,08,8,1,2,08,4,1,2,09,10,1,2,07,6,1,2,06,10,1,2,03,14,1,2,013,13,1,2,012,3,1,2,014,3,1,2,07,2,1,2,09,11,1,2,04,14,1,2,06,6,1,2,02,9,1,2,02,4,1,2,02,4,1,2,09,1,1,2,010,15,1,2,01,4,1,2,08,15,1,2,0